\Problem name: compact

Minimize
OBJROW: C
Subject To
ord(0,1):  - x(0,0) + x(0,1) >= 8
ord(0,2):  - x(0,1) + x(0,2) >= 10
ord(1,1):  x(1,0) - x(1,1) >= 7
ord(1,2):  - x(1,0) + x(1,2) >= 3
ord(2,1):  x(2,1) - x(2,2) >= 1
ord(2,2):  x(2,0) - x(2,1) >= 10
ord(3,1):  - x(3,0) + x(3,2) >= 6
ord(3,2):  x(3,1) - x(3,2) >= 2
triangle2(0,1,0):  y(0,1,0) + y(1,0,0) = 1
triangle2(0,1,1):  y(0,1,1) + y(1,0,1) = 1
triangle2(0,1,2):  y(0,1,2) + y(1,0,2) = 1
triangle2(0,2,0):  y(0,2,0) + y(2,0,0) = 1
triangle2(0,2,1):  y(0,2,1) + y(2,0,1) = 1
triangle2(0,2,2):  y(0,2,2) + y(2,0,2) = 1
triangle2(0,3,0):  y(0,3,0) + y(3,0,0) = 1
triangle2(0,3,1):  y(0,3,1) + y(3,0,1) = 1
triangle2(0,3,2):  y(0,3,2) + y(3,0,2) = 1
triangle2(1,2,0):  y(1,2,0) + y(2,1,0) = 1
triangle2(1,2,1):  y(1,2,1) + y(2,1,1) = 1
triangle2(1,2,2):  y(1,2,2) + y(2,1,2) = 1
triangle2(1,3,0):  y(1,3,0) + y(3,1,0) = 1
triangle2(1,3,1):  y(1,3,1) + y(3,1,1) = 1
triangle2(1,3,2):  y(1,3,2) + y(3,1,2) = 1
triangle2(2,3,0):  y(2,3,0) + y(3,2,0) = 1
triangle2(2,3,1):  y(2,3,1) + y(3,2,1) = 1
triangle2(2,3,2):  y(2,3,2) + y(3,2,2) = 1
MCLinV(0,1,0):  x(0,0) - v(0,1,0) - x(1,0) = 3
MCLinV(1,0,0):  - x(0,0) - v(1,0,0) + x(1,0) = 8
MCLin1(0,1,0):  u(0,1,0) >= -0
MCLin2(0,1,0):  -58 y(1,0,0) - u(0,1,0) <= -0
MCLin3(0,1,0):  32 y(1,0,0) + v(0,1,0) - u(0,1,0) <= 32
MCLin4(0,1,0):  32 y(1,0,0) - u(0,1,0) >= -0
MCLin5(0,1,0):  -58 y(1,0,0) + v(0,1,0) - u(0,1,0) >= -58
MCLin6(1,0,0):  u(1,0,0) >= -0
MCLin7(1,0,0):  -43 y(0,1,0) - u(1,0,0) <= -0
MCLin8(1,0,0):  47 y(0,1,0) + v(1,0,0) - u(1,0,0) <= 47
MCLin9(1,0,0):  47 y(0,1,0) - u(1,0,0) >= -0
MCLin10(1,0,0):  -43 y(0,1,0) + v(1,0,0) - u(1,0,0) >= -43
MCLinV(0,1,1):  x(0,1) - v(0,1,1) - x(1,1) = 7
MCLinV(1,0,1):  - x(0,1) - v(1,0,1) + x(1,1) = 10
MCLin1(0,1,1):  u(0,1,1) >= -0
MCLin2(0,1,1):  -47 y(1,0,1) - u(0,1,1) <= -0
MCLin3(0,1,1):  43 y(1,0,1) + v(0,1,1) - u(0,1,1) <= 43
MCLin4(0,1,1):  43 y(1,0,1) - u(0,1,1) >= -0
MCLin5(0,1,1):  -47 y(1,0,1) + v(0,1,1) - u(0,1,1) >= -47
MCLin6(1,0,1):  u(1,0,1) >= -0
MCLin7(1,0,1):  -60 y(0,1,1) - u(1,0,1) <= -0
MCLin8(1,0,1):  30 y(0,1,1) + v(1,0,1) - u(1,0,1) <= 30
MCLin9(1,0,1):  30 y(0,1,1) - u(1,0,1) >= -0
MCLin10(1,0,1):  -60 y(0,1,1) + v(1,0,1) - u(1,0,1) >= -60
MCLinV(0,1,2):  x(0,2) - v(0,1,2) - x(1,2) = 6
MCLinV(1,0,2):  - x(0,2) - v(1,0,2) + x(1,2) = 4
MCLin1(0,1,2):  u(0,1,2) >= -0
MCLin2(0,1,2):  -46 y(1,0,2) - u(0,1,2) <= -0
MCLin3(0,1,2):  44 y(1,0,2) + v(0,1,2) - u(0,1,2) <= 44
MCLin4(0,1,2):  44 y(1,0,2) - u(0,1,2) >= -0
MCLin5(0,1,2):  -46 y(1,0,2) + v(0,1,2) - u(0,1,2) >= -46
MCLin6(1,0,2):  u(1,0,2) >= -0
MCLin7(1,0,2):  -54 y(0,1,2) - u(1,0,2) <= -0
MCLin8(1,0,2):  36 y(0,1,2) + v(1,0,2) - u(1,0,2) <= 36
MCLin9(1,0,2):  36 y(0,1,2) - u(1,0,2) >= -0
MCLin10(1,0,2):  -54 y(0,1,2) + v(1,0,2) - u(1,0,2) >= -54
MCLinV(0,2,0):  x(0,0) - v(0,2,0) - x(2,0) = 4
MCLinV(2,0,0):  - x(0,0) - v(2,0,0) + x(2,0) = 8
MCLin1(0,2,0):  u(0,2,0) >= -0
MCLin2(0,2,0):  -64 y(2,0,0) - u(0,2,0) <= -0
MCLin3(0,2,0):  27 y(2,0,0) + v(0,2,0) - u(0,2,0) <= 27
MCLin4(0,2,0):  27 y(2,0,0) - u(0,2,0) >= -0
MCLin5(0,2,0):  -64 y(2,0,0) + v(0,2,0) - u(0,2,0) >= -64
MCLin6(2,0,0):  u(2,0,0) >= -0
MCLin7(2,0,0):  -39 y(0,2,0) - u(2,0,0) <= -0
MCLin8(2,0,0):  52 y(0,2,0) + v(2,0,0) - u(2,0,0) <= 52
MCLin9(2,0,0):  52 y(0,2,0) - u(2,0,0) >= -0
MCLin10(2,0,0):  -39 y(0,2,0) + v(2,0,0) - u(2,0,0) >= -39
MCLinV(0,2,1):  x(0,1) - v(0,2,1) - x(2,1) = 10
MCLinV(2,0,1):  - x(0,1) - v(2,0,1) + x(2,1) = 10
MCLin1(0,2,1):  u(0,2,1) >= -0
MCLin2(0,2,1):  -52 y(2,0,1) - u(0,2,1) <= -0
MCLin3(0,2,1):  39 y(2,0,1) + v(0,2,1) - u(0,2,1) <= 39
MCLin4(0,2,1):  39 y(2,0,1) - u(0,2,1) >= -0
MCLin5(0,2,1):  -52 y(2,0,1) + v(0,2,1) - u(0,2,1) >= -52
MCLin6(2,0,1):  u(2,0,1) >= -0
MCLin7(2,0,1):  -59 y(0,2,1) - u(2,0,1) <= -0
MCLin8(2,0,1):  32 y(0,2,1) + v(2,0,1) - u(2,0,1) <= 32
MCLin9(2,0,1):  32 y(0,2,1) - u(2,0,1) >= -0
MCLin10(2,0,1):  -59 y(0,2,1) + v(2,0,1) - u(2,0,1) >= -59
MCLinV(0,2,2):  x(0,2) - v(0,2,2) - x(2,2) = 1
MCLinV(2,0,2):  - x(0,2) - v(2,0,2) + x(2,2) = 4
MCLin1(0,2,2):  u(0,2,2) >= -0
MCLin2(0,2,2):  -32 y(2,0,2) - u(0,2,2) <= -0
MCLin3(0,2,2):  59 y(2,0,2) + v(0,2,2) - u(0,2,2) <= 59
MCLin4(0,2,2):  59 y(2,0,2) - u(0,2,2) >= -0
MCLin5(0,2,2):  -32 y(2,0,2) + v(0,2,2) - u(0,2,2) >= -32
MCLin6(2,0,2):  u(2,0,2) >= -0
MCLin7(2,0,2):  -64 y(0,2,2) - u(2,0,2) <= -0
MCLin8(2,0,2):  27 y(0,2,2) + v(2,0,2) - u(2,0,2) <= 27
MCLin9(2,0,2):  27 y(0,2,2) - u(2,0,2) >= -0
MCLin10(2,0,2):  -64 y(0,2,2) + v(2,0,2) - u(2,0,2) >= -64
MCLinV(0,3,0):  x(0,0) - v(0,3,0) - x(3,0) = 6
MCLinV(3,0,0):  - x(0,0) - v(3,0,0) + x(3,0) = 8
MCLin1(0,3,0):  u(0,3,0) >= -0
MCLin2(0,3,0):  -59 y(3,0,0) - u(0,3,0) <= -0
MCLin3(0,3,0):  36 y(3,0,0) + v(0,3,0) - u(0,3,0) <= 36
MCLin4(0,3,0):  36 y(3,0,0) - u(0,3,0) >= -0
MCLin5(0,3,0):  -59 y(3,0,0) + v(0,3,0) - u(0,3,0) >= -59
MCLin6(3,0,0):  u(3,0,0) >= -0
MCLin7(3,0,0):  -50 y(0,3,0) - u(3,0,0) <= -0
MCLin8(3,0,0):  45 y(0,3,0) + v(3,0,0) - u(3,0,0) <= 45
MCLin9(3,0,0):  45 y(0,3,0) - u(3,0,0) >= -0
MCLin10(3,0,0):  -50 y(0,3,0) + v(3,0,0) - u(3,0,0) >= -50
MCLinV(0,3,1):  x(0,1) - v(0,3,1) - x(3,1) = 3
MCLinV(3,0,1):  - x(0,1) - v(3,0,1) + x(3,1) = 10
MCLin1(0,3,1):  u(0,3,1) >= -0
MCLin2(0,3,1):  -56 y(3,0,1) - u(0,3,1) <= -0
MCLin3(0,3,1):  39 y(3,0,1) + v(0,3,1) - u(0,3,1) <= 39
MCLin4(0,3,1):  39 y(3,0,1) - u(0,3,1) >= -0
MCLin5(0,3,1):  -56 y(3,0,1) + v(0,3,1) - u(0,3,1) >= -56
MCLin6(3,0,1):  u(3,0,1) >= -0
MCLin7(3,0,1):  -52 y(0,3,1) - u(3,0,1) <= -0
MCLin8(3,0,1):  43 y(0,3,1) + v(3,0,1) - u(3,0,1) <= 43
MCLin9(3,0,1):  43 y(0,3,1) - u(3,0,1) >= -0
MCLin10(3,0,1):  -52 y(0,3,1) + v(3,0,1) - u(3,0,1) >= -52
MCLinV(0,3,2):  x(0,2) - v(0,3,2) - x(3,2) = 2
MCLinV(3,0,2):  - x(0,2) - v(3,0,2) + x(3,2) = 4
MCLin1(0,3,2):  u(0,3,2) >= -0
MCLin2(0,3,2):  -43 y(3,0,2) - u(0,3,2) <= -0
MCLin3(0,3,2):  52 y(3,0,2) + v(0,3,2) - u(0,3,2) <= 52
MCLin4(0,3,2):  52 y(3,0,2) - u(0,3,2) >= -0
MCLin5(0,3,2):  -43 y(3,0,2) + v(0,3,2) - u(0,3,2) >= -43
MCLin6(3,0,2):  u(3,0,2) >= -0
MCLin7(3,0,2):  -58 y(0,3,2) - u(3,0,2) <= -0
MCLin8(3,0,2):  37 y(0,3,2) + v(3,0,2) - u(3,0,2) <= 37
MCLin9(3,0,2):  37 y(0,3,2) - u(3,0,2) >= -0
MCLin10(3,0,2):  -58 y(0,3,2) + v(3,0,2) - u(3,0,2) >= -58
MCLinV(1,2,0):  x(1,0) - v(1,2,0) - x(2,0) = 4
MCLinV(2,1,0):  - x(1,0) - v(2,1,0) + x(2,0) = 3
MCLin1(1,2,0):  u(1,2,0) >= -0
MCLin2(1,2,0):  -57 y(2,1,0) - u(1,2,0) <= -0
MCLin3(1,2,0):  40 y(2,1,0) + v(1,2,0) - u(1,2,0) <= 40
MCLin4(1,2,0):  40 y(2,1,0) - u(1,2,0) >= -0
MCLin5(1,2,0):  -57 y(2,1,0) + v(1,2,0) - u(1,2,0) >= -57
MCLin6(2,1,0):  u(2,1,0) >= -0
MCLin7(2,1,0):  -47 y(1,2,0) - u(2,1,0) <= -0
MCLin8(2,1,0):  50 y(1,2,0) + v(2,1,0) - u(2,1,0) <= 50
MCLin9(2,1,0):  50 y(1,2,0) - u(2,1,0) >= -0
MCLin10(2,1,0):  -47 y(1,2,0) + v(2,1,0) - u(2,1,0) >= -47
MCLinV(1,2,1):  x(1,1) - v(1,2,1) - x(2,1) = 10
MCLinV(2,1,1):  - x(1,1) - v(2,1,1) + x(2,1) = 7
MCLin1(1,2,1):  u(1,2,1) >= -0
MCLin2(1,2,1):  -60 y(2,1,1) - u(1,2,1) <= -0
MCLin3(1,2,1):  37 y(2,1,1) + v(1,2,1) - u(1,2,1) <= 37
MCLin4(1,2,1):  37 y(2,1,1) - u(1,2,1) >= -0
MCLin5(1,2,1):  -60 y(2,1,1) + v(1,2,1) - u(1,2,1) >= -60
MCLin6(2,1,1):  u(2,1,1) >= -0
MCLin7(2,1,1):  -54 y(1,2,1) - u(2,1,1) <= -0
MCLin8(2,1,1):  43 y(1,2,1) + v(2,1,1) - u(2,1,1) <= 43
MCLin9(2,1,1):  43 y(1,2,1) - u(2,1,1) >= -0
MCLin10(2,1,1):  -54 y(1,2,1) + v(2,1,1) - u(2,1,1) >= -54
MCLinV(1,2,2):  x(1,2) - v(1,2,2) - x(2,2) = 1
MCLinV(2,1,2):  - x(1,2) - v(2,1,2) + x(2,2) = 6
MCLin1(1,2,2):  u(1,2,2) >= -0
MCLin2(1,2,2):  -40 y(2,1,2) - u(1,2,2) <= -0
MCLin3(1,2,2):  57 y(2,1,2) + v(1,2,2) - u(1,2,2) <= 57
MCLin4(1,2,2):  57 y(2,1,2) - u(1,2,2) >= -0
MCLin5(1,2,2):  -40 y(2,1,2) + v(1,2,2) - u(1,2,2) >= -40
MCLin6(2,1,2):  u(2,1,2) >= -0
MCLin7(2,1,2):  -64 y(1,2,2) - u(2,1,2) <= -0
MCLin8(2,1,2):  33 y(1,2,2) + v(2,1,2) - u(2,1,2) <= 33
MCLin9(2,1,2):  33 y(1,2,2) - u(2,1,2) >= -0
MCLin10(2,1,2):  -64 y(1,2,2) + v(2,1,2) - u(2,1,2) >= -64
MCLinV(1,3,0):  x(1,0) - v(1,3,0) - x(3,0) = 6
MCLinV(3,1,0):  - x(1,0) - v(3,1,0) + x(3,0) = 3
MCLin1(1,3,0):  u(1,3,0) >= -0
MCLin2(1,3,0):  -52 y(3,1,0) - u(1,3,0) <= -0
MCLin3(1,3,0):  49 y(3,1,0) + v(1,3,0) - u(1,3,0) <= 49
MCLin4(1,3,0):  49 y(3,1,0) - u(1,3,0) >= -0
MCLin5(1,3,0):  -52 y(3,1,0) + v(1,3,0) - u(1,3,0) >= -52
MCLin6(3,1,0):  u(3,1,0) >= -0
MCLin7(3,1,0):  -58 y(1,3,0) - u(3,1,0) <= -0
MCLin8(3,1,0):  43 y(1,3,0) + v(3,1,0) - u(3,1,0) <= 43
MCLin9(3,1,0):  43 y(1,3,0) - u(3,1,0) >= -0
MCLin10(3,1,0):  -58 y(1,3,0) + v(3,1,0) - u(3,1,0) >= -58
MCLinV(1,3,1):  x(1,1) - v(1,3,1) - x(3,1) = 3
MCLinV(3,1,1):  - x(1,1) - v(3,1,1) + x(3,1) = 7
MCLin1(1,3,1):  u(1,3,1) >= -0
MCLin2(1,3,1):  -64 y(3,1,1) - u(1,3,1) <= -0
MCLin3(1,3,1):  37 y(3,1,1) + v(1,3,1) - u(1,3,1) <= 37
MCLin4(1,3,1):  37 y(3,1,1) - u(1,3,1) >= -0
MCLin5(1,3,1):  -64 y(3,1,1) + v(1,3,1) - u(1,3,1) >= -64
MCLin6(3,1,1):  u(3,1,1) >= -0
MCLin7(3,1,1):  -47 y(1,3,1) - u(3,1,1) <= -0
MCLin8(3,1,1):  54 y(1,3,1) + v(3,1,1) - u(3,1,1) <= 54
MCLin9(3,1,1):  54 y(1,3,1) - u(3,1,1) >= -0
MCLin10(3,1,1):  -47 y(1,3,1) + v(3,1,1) - u(3,1,1) >= -47
MCLinV(1,3,2):  x(1,2) - v(1,3,2) - x(3,2) = 2
MCLinV(3,1,2):  - x(1,2) - v(3,1,2) + x(3,2) = 6
MCLin1(1,3,2):  u(1,3,2) >= -0
MCLin2(1,3,2):  -51 y(3,1,2) - u(1,3,2) <= -0
MCLin3(1,3,2):  50 y(3,1,2) + v(1,3,2) - u(1,3,2) <= 50
MCLin4(1,3,2):  50 y(3,1,2) - u(1,3,2) >= -0
MCLin5(1,3,2):  -51 y(3,1,2) + v(1,3,2) - u(1,3,2) >= -51
MCLin6(3,1,2):  u(3,1,2) >= -0
MCLin7(3,1,2):  -58 y(1,3,2) - u(3,1,2) <= -0
MCLin8(3,1,2):  43 y(1,3,2) + v(3,1,2) - u(3,1,2) <= 43
MCLin9(3,1,2):  43 y(1,3,2) - u(3,1,2) >= -0
MCLin10(3,1,2):  -58 y(1,3,2) + v(3,1,2) - u(3,1,2) >= -58
MCLinV(2,3,0):  x(2,0) - v(2,3,0) - x(3,0) = 6
MCLinV(3,2,0):  - x(2,0) - v(3,2,0) + x(3,0) = 4
MCLin1(2,3,0):  u(2,3,0) >= -0
MCLin2(2,3,0):  -48 y(3,2,0) - u(2,3,0) <= -0
MCLin3(2,3,0):  54 y(3,2,0) + v(2,3,0) - u(2,3,0) <= 54
MCLin4(2,3,0):  54 y(3,2,0) - u(2,3,0) >= -0
MCLin5(2,3,0):  -48 y(3,2,0) + v(2,3,0) - u(2,3,0) >= -48
MCLin6(3,2,0):  u(3,2,0) >= -0
MCLin7(3,2,0):  -64 y(2,3,0) - u(3,2,0) <= -0
MCLin8(3,2,0):  38 y(2,3,0) + v(3,2,0) - u(3,2,0) <= 38
MCLin9(3,2,0):  38 y(2,3,0) - u(3,2,0) >= -0
MCLin10(3,2,0):  -64 y(2,3,0) + v(3,2,0) - u(3,2,0) >= -64
MCLinV(2,3,1):  x(2,1) - v(2,3,1) - x(3,1) = 3
MCLinV(3,2,1):  - x(2,1) - v(3,2,1) + x(3,1) = 10
MCLin1(2,3,1):  u(2,3,1) >= -0
MCLin2(2,3,1):  -63 y(3,2,1) - u(2,3,1) <= -0
MCLin3(2,3,1):  39 y(3,2,1) + v(2,3,1) - u(2,3,1) <= 39
MCLin4(2,3,1):  39 y(3,2,1) - u(2,3,1) >= -0
MCLin5(2,3,1):  -63 y(3,2,1) + v(2,3,1) - u(2,3,1) >= -63
MCLin6(3,2,1):  u(3,2,1) >= -0
MCLin7(3,2,1):  -52 y(2,3,1) - u(3,2,1) <= -0
MCLin8(3,2,1):  50 y(2,3,1) + v(3,2,1) - u(3,2,1) <= 50
MCLin9(3,2,1):  50 y(2,3,1) - u(3,2,1) >= -0
MCLin10(3,2,1):  -52 y(2,3,1) + v(3,2,1) - u(3,2,1) >= -52
MCLinV(2,3,2):  x(2,2) - v(2,3,2) - x(3,2) = 2
MCLinV(3,2,2):  - x(2,2) - v(3,2,2) + x(3,2) = 1
MCLin1(2,3,2):  u(2,3,2) >= -0
MCLin2(2,3,2):  -61 y(3,2,2) - u(2,3,2) <= -0
MCLin3(2,3,2):  41 y(3,2,2) + v(2,3,2) - u(2,3,2) <= 41
MCLin4(2,3,2):  41 y(3,2,2) - u(2,3,2) >= -0
MCLin5(2,3,2):  -61 y(3,2,2) + v(2,3,2) - u(2,3,2) >= -61
MCLin6(3,2,2):  u(3,2,2) >= -0
MCLin7(3,2,2):  -44 y(2,3,2) - u(3,2,2) <= -0
MCLin8(3,2,2):  58 y(2,3,2) + v(3,2,2) - u(3,2,2) <= 58
MCLin9(3,2,2):  58 y(2,3,2) - u(3,2,2) >= -0
MCLin10(3,2,2):  -44 y(2,3,2) + v(3,2,2) - u(3,2,2) >= -44
makespan(0):  C - x(0,2) >= 4
makespan(1):  C - x(1,2) >= 6
makespan(2):  C - x(2,0) >= 4
makespan(3):  C - x(3,1) >= 3
cut_clique_0(0123,0):  0.16667 x(0,0) + 0.12500 x(3,0) >= 1
cut_clique_0(013,0):  0.16667 x(0,0) + 0.12500 x(3,0) >= 1
cut_clique_0(023,0):  0.16667 x(0,0) + 0.12500 x(3,0) >= 1
cut_clique_0(0123,1):  0.03231 x(0,1) + 0.01725 x(1,1) + 0.02700 x(2,1) + 0.00969 x(3,1) >= 1
cut_clique_0(023,1):  0.05716 x(0,1) + 0.01115 x(2,1) + 0.01715 x(3,1) >= 1
cut_clique_0(012,1):  0.04400 x(0,1) + 0.02286 x(1,1) + 0.03600 x(2,1) >= 1
cut_clique_0(013,1):  0.07463 x(0,1) + 0.02239 x(3,1) >= 1
cut_clique_0(123,1):  0.04253 x(1,1) + 0.06870 x(2,1) + 0.03053 x(3,1) >= 1
cut_clique_1(0123,1):  0.03445 x(0,1) + 0.01753 x(1,1) + 0.02744 x(2,1) + 0.00823 x(3,1) >= 1
cut_clique_0:  0.04982 x(0,0) + 0.01868 x(1,0) + 0.03736 x(3,0) + 0.01868 x(0,1) + 0.01099 x(2,1) + 0.00330 x(3,1) >= 1
cut_clique_1:  0.01922 x(0,0) + 0.00721 x(1,0) + 0.01442 x(3,0) + 0.02532 x(0,1) + 0.01052 x(1,1) + 0.02116 x(2,1) + 0.00760 x(3,1) >= 1
cut_clique_2:  0.00706 x(0,0) + 0.00265 x(1,0) + 0.00529 x(3,0) + 0.03172 x(0,1) + 0.01504 x(1,1) + 0.02526 x(2,1) + 0.00758 x(3,1) >= 1
Bounds
 0 <= C <= 64
 0 <= x(0,0) <= 42
 0 <= y(0,1,0) <= 1
 0 <= y(1,0,0) <= 1
 -58 <= v(0,1,0) <= 32
 -43 <= v(1,0,0) <= 47
 -640 <= u(0,1,0)
 -640 <= u(1,0,0)
 0 <= y(0,2,0) <= 1
 0 <= y(2,0,0) <= 1
 -64 <= v(0,2,0) <= 27
 -39 <= v(2,0,0) <= 52
 -640 <= u(0,2,0)
 -640 <= u(2,0,0)
 0 <= y(0,3,0) <= 1
 0 <= y(3,0,0) <= 1
 -59 <= v(0,3,0) <= 36
 -50 <= v(3,0,0) <= 45
 -640 <= u(0,3,0)
 -640 <= u(3,0,0)
 7 <= x(1,0) <= 55
 0 <= y(1,2,0) <= 1
 0 <= y(2,1,0) <= 1
 -57 <= v(1,2,0) <= 40
 -47 <= v(2,1,0) <= 50
 -640 <= u(1,2,0)
 -640 <= u(2,1,0)
 0 <= y(1,3,0) <= 1
 0 <= y(3,1,0) <= 1
 -52 <= v(1,3,0) <= 49
 -58 <= v(3,1,0) <= 43
 -640 <= u(1,3,0)
 -640 <= u(3,1,0)
 11 <= x(2,0) <= 60
 0 <= y(2,3,0) <= 1
 0 <= y(3,2,0) <= 1
 -48 <= v(2,3,0) <= 54
 -64 <= v(3,2,0) <= 38
 -640 <= u(2,3,0)
 -640 <= u(3,2,0)
 0 <= x(3,0) <= 53
 8 <= x(0,1) <= 50
 0 <= y(0,1,1) <= 1
 0 <= y(1,0,1) <= 1
 -47 <= v(0,1,1) <= 43
 -60 <= v(1,0,1) <= 30
 -640 <= u(0,1,1)
 -640 <= u(1,0,1)
 0 <= y(0,2,1) <= 1
 0 <= y(2,0,1) <= 1
 -52 <= v(0,2,1) <= 39
 -59 <= v(2,0,1) <= 32
 -640 <= u(0,2,1)
 -640 <= u(2,0,1)
 0 <= y(0,3,1) <= 1
 0 <= y(3,0,1) <= 1
 -56 <= v(0,3,1) <= 39
 -52 <= v(3,0,1) <= 43
 -640 <= u(0,3,1)
 -640 <= u(3,0,1)
 0 <= x(1,1) <= 48
 0 <= y(1,2,1) <= 1
 0 <= y(2,1,1) <= 1
 -60 <= v(1,2,1) <= 37
 -54 <= v(2,1,1) <= 43
 -640 <= u(1,2,1)
 -640 <= u(2,1,1)
 0 <= y(1,3,1) <= 1
 0 <= y(3,1,1) <= 1
 -64 <= v(1,3,1) <= 37
 -47 <= v(3,1,1) <= 54
 -640 <= u(1,3,1)
 -640 <= u(3,1,1)
 1 <= x(2,1) <= 50
 0 <= y(2,3,1) <= 1
 0 <= y(3,2,1) <= 1
 -63 <= v(2,3,1) <= 39
 -52 <= v(3,2,1) <= 50
 -640 <= u(2,3,1)
 -640 <= u(3,2,1)
 8 <= x(3,1) <= 61
 18 <= x(0,2) <= 60
 0 <= y(0,1,2) <= 1
 0 <= y(1,0,2) <= 1
 -46 <= v(0,1,2) <= 44
 -54 <= v(1,0,2) <= 36
 -640 <= u(0,1,2)
 -640 <= u(1,0,2)
 0 <= y(0,2,2) <= 1
 0 <= y(2,0,2) <= 1
 -32 <= v(0,2,2) <= 59
 -64 <= v(2,0,2) <= 27
 -640 <= u(0,2,2)
 -640 <= u(2,0,2)
 0 <= y(0,3,2) <= 1
 0 <= y(3,0,2) <= 1
 -43 <= v(0,3,2) <= 52
 -58 <= v(3,0,2) <= 37
 -640 <= u(0,3,2)
 -640 <= u(3,0,2)
 10 <= x(1,2) <= 58
 0 <= y(1,2,2) <= 1
 0 <= y(2,1,2) <= 1
 -40 <= v(1,2,2) <= 57
 -64 <= v(2,1,2) <= 33
 -640 <= u(1,2,2)
 -640 <= u(2,1,2)
 0 <= y(1,3,2) <= 1
 0 <= y(3,1,2) <= 1
 -51 <= v(1,3,2) <= 50
 -58 <= v(3,1,2) <= 43
 -640 <= u(1,3,2)
 -640 <= u(3,1,2)
 0 <= x(2,2) <= 49
 0 <= y(2,3,2) <= 1
 0 <= y(3,2,2) <= 1
 -61 <= v(2,3,2) <= 41
 -44 <= v(3,2,2) <= 58
 -640 <= u(2,3,2)
 -640 <= u(3,2,2)
 6 <= x(3,2) <= 59
Integers
C x(0,0) y(0,1,0) y(1,0,0) v(0,1,0) v(1,0,0) u(0,1,0) u(1,0,0) y(0,2,0) y(2,0,0) 
v(0,2,0) v(2,0,0) u(0,2,0) u(2,0,0) y(0,3,0) y(3,0,0) v(0,3,0) v(3,0,0) u(0,3,0) u(3,0,0) 
x(1,0) y(1,2,0) y(2,1,0) v(1,2,0) v(2,1,0) u(1,2,0) u(2,1,0) y(1,3,0) y(3,1,0) v(1,3,0) 
v(3,1,0) u(1,3,0) u(3,1,0) x(2,0) y(2,3,0) y(3,2,0) v(2,3,0) v(3,2,0) u(2,3,0) u(3,2,0) 
x(3,0) x(0,1) y(0,1,1) y(1,0,1) v(0,1,1) v(1,0,1) u(0,1,1) u(1,0,1) y(0,2,1) y(2,0,1) 
v(0,2,1) v(2,0,1) u(0,2,1) u(2,0,1) y(0,3,1) y(3,0,1) v(0,3,1) v(3,0,1) u(0,3,1) u(3,0,1) 
x(1,1) y(1,2,1) y(2,1,1) v(1,2,1) v(2,1,1) u(1,2,1) u(2,1,1) y(1,3,1) y(3,1,1) v(1,3,1) 
v(3,1,1) u(1,3,1) u(3,1,1) x(2,1) y(2,3,1) y(3,2,1) v(2,3,1) v(3,2,1) u(2,3,1) u(3,2,1) 
x(3,1) x(0,2) y(0,1,2) y(1,0,2) v(0,1,2) v(1,0,2) u(0,1,2) u(1,0,2) y(0,2,2) y(2,0,2) 
v(0,2,2) v(2,0,2) u(0,2,2) u(2,0,2) y(0,3,2) y(3,0,2) v(0,3,2) v(3,0,2) u(0,3,2) u(3,0,2) 
x(1,2) y(1,2,2) y(2,1,2) v(1,2,2) v(2,1,2) u(1,2,2) u(2,1,2) y(1,3,2) y(3,1,2) v(1,3,2) 
v(3,1,2) u(1,3,2) u(3,1,2) x(2,2) y(2,3,2) y(3,2,2) v(2,3,2) v(3,2,2) u(2,3,2) u(3,2,2) 
x(3,2) 
End
